p cnf 100 233
-2 -6 0
-7 -10 0
-18 -19 0
-23 -24 0
-25 -28 0
-26 -27 0
-33 -37 0
-33 -39 0
-37 -39 0
-43 -50 0
-45 -47 0
-53 -54 0
-57 -58 0
-57 -59 0
-58 -59 0
-62 -64 0
-72 -75 0
-72 -80 0
-75 -80 0
-81 -83 0
-84 -89 0
-93 -99 0
-95 -97 0
-1 -81 0
-31 -91 0
-41 -51 0
-2 -22 0
-2 -52 0
-22 -52 0
-72 -82 0
-23 -33 0
-53 -93 0
-4 -54 0
-24 -64 0
-24 -94 0
-44 -84 0
-64 -94 0
-15 -95 0
-45 -65 0
-26 -56 0
-26 -76 0
-56 -76 0
-7 -37 0
-67 -87 0
-8 -28 0
-48 -78 0
-29 -59 0
-39 -49 0
-40 -50 0
-70 -80 0
3 0
5 0
9 0
11 0
12 0
13 0
14 0
16 0
17 0
20 0
21 0
30 0
32 0
34 0
35 0
36 0
38 0
42 0
46 0
55 0
60 0
61 0
63 0
66 0
68 0
69 0
71 0
73 0
74 0
77 0
79 0
85 0
86 0
88 0
90 0
92 0
96 0
98 0
100 0
2 1 0
7 6 0
8 7 0
18 8 0
19 18 0
23 22 0
24 23 0
25 15 0
25 24 0
26 25 0
27 26 0
28 18 0
28 27 0
29 19 0
29 28 0
33 23 0
37 27 0
39 29 0
40 39 0
41 31 0
43 33 0
44 43 0
45 44 0
47 37 0
48 47 0
49 39 0
49 48 0
50 40 0
50 49 0
51 41 0
52 51 0
53 43 0
53 52 0
54 44 0
54 53 0
57 47 0
57 56 0
58 48 0
58 57 0
59 49 0
59 58 0
62 52 0
64 54 0
65 64 0
67 57 0
72 62 0
75 65 0
76 75 0
80 70 0
82 72 0
82 81 0
83 82 0
84 83 0
91 81 0
93 83 0
94 84 0
94 93 0
95 94 0
97 87 0
99 89 0
28 39 48 37 0
39 50 59 48 0
45 56 65 54 0
47 58 67 56 0
56 67 76 65 0
67 78 87 76 0
10 19 28 37 26 15 24 33 22 31 0
10 19 28 37 26 15 24 33 44 53 62 51 0
10 19 28 37 26 15 24 33 44 53 64 75 84 93 0
10 19 28 37 26 15 24 33 44 53 64 75 84 95 0
10 19 28 37 48 59 50 0
10 19 28 37 48 59 70 0
10 19 28 39 48 59 70 0
10 19 28 39 50 0
31 22 33 24 15 26 37 28 39 50 0
31 22 33 24 15 26 37 48 39 50 0
31 22 33 24 15 26 37 48 59 50 0
31 22 33 24 15 26 37 48 59 70 0
31 22 33 44 53 62 51 0
31 22 33 44 53 64 75 84 93 0
31 22 33 44 53 64 75 84 95 0
40 49 58 47 56 45 54 43 52 41 0
40 49 58 47 56 65 54 43 52 41 0
40 49 58 47 56 65 76 87 78 89 80 0
40 49 58 67 56 45 54 43 52 41 0
40 49 58 67 56 65 54 43 52 41 0
40 49 58 67 76 65 54 43 52 41 0
40 49 58 67 78 89 80 0
41 52 43 54 45 56 67 78 89 80 0
41 52 43 54 65 56 67 78 89 80 0
41 52 43 54 65 76 67 78 89 80 0
41 52 43 54 65 76 87 78 89 80 0
50 39 28 37 26 15 24 33 44 53 62 51 0
50 39 28 37 26 15 24 33 44 53 64 75 84 93 0
50 39 28 37 26 15 24 33 44 53 64 75 84 95 0
50 39 48 37 26 15 24 33 44 53 62 51 0
50 39 48 37 26 15 24 33 44 53 64 75 84 93 0
50 39 48 37 26 15 24 33 44 53 64 75 84 95 0
50 59 48 37 26 15 24 33 44 53 62 51 0
50 59 48 37 26 15 24 33 44 53 64 75 84 93 0
50 59 48 37 26 15 24 33 44 53 64 75 84 95 0
50 59 70 0
51 62 53 44 33 24 15 26 37 28 39 50 59 70 0
51 62 53 44 33 24 15 26 37 48 59 70 0
51 62 53 64 75 84 93 0
51 62 53 64 75 84 95 0
70 59 48 37 26 15 24 33 44 53 64 75 84 93 0
70 59 48 37 26 15 24 33 44 53 64 75 84 95 0
70 59 50 39 28 37 26 15 24 33 44 53 64 75 84 93 0
70 59 50 39 28 37 26 15 24 33 44 53 64 75 84 95 0
81 72 83 94 0
91 82 93 0
93 84 95 0
4 15 6 0
4 15 24 33 22 31 0
4 15 24 33 44 53 62 51 0
4 15 24 33 44 53 64 75 84 93 0
4 15 24 33 44 53 64 75 84 95 0
4 15 26 37 28 19 8 0
4 15 26 37 28 19 10 0
4 15 26 37 28 39 50 0
4 15 26 37 48 39 50 0
4 15 26 37 48 59 50 0
4 15 26 37 48 59 70 0
6 15 24 33 22 31 0
6 15 24 33 44 53 62 51 0
6 15 24 33 44 53 64 75 84 93 0
6 15 24 33 44 53 64 75 84 95 0
6 15 26 37 28 19 8 0
6 15 26 37 28 19 10 0
6 15 26 37 28 39 50 0
6 15 26 37 48 39 50 0
6 15 26 37 48 59 50 0
6 15 26 37 48 59 70 0
7 18 29 40 0
8 19 10 0
8 19 28 37 26 15 24 33 22 31 0
8 19 28 37 26 15 24 33 44 53 62 51 0
8 19 28 37 26 15 24 33 44 53 64 75 84 93 0
8 19 28 37 26 15 24 33 44 53 64 75 84 95 0
8 19 28 37 48 59 50 0
8 19 28 37 48 59 70 0
8 19 28 39 48 59 70 0
8 19 28 39 50 0
